
  12   12
  10   10   10   10   10   10   10   10   10   10   10   10

   0   0   0   0   0   0   0   0   0   0   0   0   0   5 2 4 5 10 11 
   2   1   0   0   1   0   0   0   0   1   0   1   0   2 9 3 
   4   0   0   0   0   0   0   5   0   0   0   0   0   3 8 7 6 
   6   0   1   0   6   0   0   0   0   5   1   0   0   3 8 7 6 
   8   0   0   0   0   0   0   0   1   0   0   0   5   2 7 6 
   1   8   0   0   8   0   1   0   0   0   0   0   0   1 12
   6   0   6   0   0   0   0   0   0   0   1   9   0   1 12
   5   0   0   1   0   0   6   0   0   7   0   5   0   1 12
  10   0   4   9   5   1   6   0   9   7   0   0   0   1 12
   3   4   9   0   0   0   7   0   0   0   9   0   0   1 12
  10   7   0   0   0   9   0   0   0   0   9   0   0   1 12
   0   0   0   0   0   0   0   0   0   0   0   0   0   0 
